33D32945 STP File, STP Format Version 1.0

SECTION Comment
Name "lin02-5s"
Creator "Bernd Zey"
Problem "Stochastic Steiner Tree Problem"
# Stochastic Steiner tree problem instance, base file: lin02.stp
# weight-scaling off
# parameters:
# distribution=equal
# selectRootRandomly=0
# probabilityTerminal=33
# probabilityNonTerminal=5
# 2nd stage edge-costs in [1.1000c_e, 1.3000c_e]
END

SECTION Graph
Nodes 55
Edges 82
Scenarios 5
Root 11
E 1 53 10
E 1 32 74
E 1 39 24
E 2 54 110
E 2 24 160
E 3 48 66
E 3 53 24
E 3 10 162
E 4 47 12
E 4 23 64
E 4 37 32
E 5 14 88
E 5 30 144
E 5 10 92
E 5 26 160
E 6 10 74
E 6 29 6
E 6 54 160
E 7 41 33
E 7 47 42
E 7 29 62
E 8 44 88
E 8 19 26
E 8 15 2
E 9 34 25
E 9 55 2
E 9 13 42
E 10 35 160
E 11 36 49
E 11 32 23
E 12 14 160
E 12 26 88
E 13 46 2
E 13 28 18
E 14 33 144
E 15 17 88
E 15 49 26
E 15 50 146
E 16 29 42
E 16 47 62
E 16 24 62
E 17 44 2
E 17 27 146
E 18 33 52
E 18 30 36
E 19 42 76
E 19 49 2
E 20 45 102
E 20 40 190
E 21 50 26
E 21 49 146
E 21 53 66
E 21 48 24
E 22 28 2
E 22 46 18
E 22 23 52
E 23 31 18
E 24 51 62
E 25 32 72
E 25 52 72
E 25 55 74
E 26 35 92
E 27 50 88
E 27 43 24
E 28 41 31
E 30 38 18
E 31 46 52
E 31 40 50
E 33 43 18
E 34 39 21
E 35 54 74
E 36 49 76
E 36 42 2
E 36 52 72
E 37 51 18
E 38 43 88
E 38 50 24
E 38 48 26
E 40 51 82
E 42 45 72
E 45 52 2
E 46 55 42
END

SECTION StochasticProbabilities
SP 0.15910 0.13640 0.27280 0.11360 0.31810
END

SECTION StochasticWeights
SE 11 13 12 12 12 
SE 90 82 83 89 85 
SE 27 29 28 27 30 
SE 130 128 141 134 135 
SE 186 188 182 179 195 
SE 80 75 73 83 82 
SE 27 28 28 30 27 
SE 205 185 195 194 201 
SE 14 15 14 14 14 
SE 83 74 78 77 81 
SE 40 36 39 38 36 
SE 100 114 98 111 110 
SE 184 170 173 169 187 
SE 102 105 116 109 118 
SE 183 200 202 187 201 
SE 90 85 93 92 90 
SE 7 7 7 7 7 
SE 207 195 180 194 206 
SE 42 37 37 37 42 
SE 52 49 47 54 54 
SE 77 79 79 71 74 
SE 109 109 101 108 97 
SE 33 29 31 30 29 
SE 3 3 3 3 3 
SE 29 29 31 29 28 
SE 3 3 3 3 3 
SE 50 49 53 48 47 
SE 191 187 204 206 199 
SE 54 57 58 60 57 
SE 26 26 26 29 26 
SE 183 182 194 200 177 
SE 102 97 114 103 110 
SE 3 3 3 3 3 
SE 23 23 20 21 22 
SE 168 159 161 185 172 
SE 107 99 112 104 98 
SE 33 29 29 30 29 
SE 175 185 165 178 166 
SE 53 47 53 48 49 
SE 70 72 73 73 79 
SE 79 79 70 77 79 
SE 3 3 3 3 3 
SE 161 189 170 189 171 
SE 59 59 63 61 66 
SE 40 42 41 41 40 
SE 91 96 92 98 87 
SE 3 3 3 3 3 
SE 115 127 114 131 117 
SE 244 244 242 222 243 
SE 31 33 30 29 29 
SE 168 164 181 179 172 
SE 77 84 73 77 84 
SE 28 27 27 28 29 
SE 3 3 3 3 3 
SE 21 22 23 21 20 
SE 63 61 63 65 58 
SE 22 21 22 21 21 
SE 76 79 72 79 69 
SE 88 80 83 86 90 
SE 89 87 91 88 89 
SE 87 93 92 86 92 
SE 115 102 104 109 118 
SE 111 109 97 99 113 
SE 30 30 29 31 29 
SE 35 40 38 39 37 
SE 20 20 20 21 20 
SE 66 58 60 64 64 
SE 63 60 59 63 56 
SE 20 20 22 21 21 
SE 26 26 26 25 26 
SE 84 87 84 93 89 
SE 85 87 95 84 90 
SE 3 3 3 3 3 
SE 90 80 84 83 80 
SE 22 23 23 21 20 
SE 99 98 114 112 105 
SE 30 28 27 31 30 
SE 32 29 29 29 33 
SE 106 105 106 99 94 
SE 86 82 87 85 88 
SE 3 3 3 3 3 
SE 47 53 50 48 54 
END

SECTION StochasticTerminals
ST 1 0 0 0 0 0 
ST 2 0 0 0 0 0 
ST 3 0 0 0 0 0 
ST 4 0 0 0 0 0 
ST 5 0 0 0 0 0 
ST 6 1 0 0 0 0 
ST 7 0 0 0 0 0 
ST 8 0 0 0 0 0 
ST 9 0 0 0 0 0 
ST 10 0 0 0 0 1 
ST 11 1 1 1 1 1 
ST 12 0 0 0 0 0 
ST 13 0 0 0 0 0 
ST 14 0 1 0 0 0 
ST 15 0 0 0 0 1 
ST 16 0 1 0 0 0 
ST 17 0 0 1 0 0 
ST 18 0 0 0 0 0 
ST 19 0 0 0 0 0 
ST 20 0 0 0 0 0 
ST 21 1 0 0 0 0 
ST 22 0 0 0 0 0 
ST 23 0 1 0 0 0 
ST 24 0 0 0 0 0 
ST 25 0 0 0 0 0 
ST 26 0 0 1 0 1 
ST 27 0 0 0 0 0 
ST 28 0 0 0 0 0 
ST 29 0 0 0 0 0 
ST 30 0 0 0 0 0 
ST 31 0 0 0 0 0 
ST 32 0 0 0 0 0 
ST 33 0 0 0 0 0 
ST 34 1 0 1 0 1 
ST 35 0 0 1 0 0 
ST 36 0 0 0 0 0 
ST 37 0 1 0 0 1 
ST 38 0 1 0 0 1 
ST 39 1 0 0 1 1 
ST 40 0 0 0 0 0 
ST 41 0 1 0 1 1 
ST 42 0 0 0 0 0 
ST 43 0 0 0 0 0 
ST 44 0 0 1 0 0 
ST 45 0 0 0 0 1 
ST 46 0 0 0 0 0 
ST 47 0 0 0 0 0 
ST 48 0 0 0 0 0 
ST 49 0 0 0 0 0 
ST 50 0 0 0 0 0 
ST 51 0 0 0 0 0 
ST 52 0 0 0 0 0 
ST 53 0 0 0 0 0 
ST 54 1 0 0 0 1 
ST 55 0 0 0 0 0 
END


SECTION Coordinates
DD 1 346 174
DD 2 0 0
DD 3 322 184
DD 4 222 50
DD 5 160 276
DD 6 160 110
DD 7 222 104
DD 8 494 276
DD 9 346 104
DD 10 160 184
DD 11 443 174
DD 12 0 364
DD 13 304 104
DD 14 160 364
DD 15 492 276
DD 16 160 62
DD 17 492 364
DD 18 304 312
DD 19 494 250
DD 20 494 0
DD 21 346 250
DD 22 286 102
DD 23 286 50
DD 24 160 0
DD 25 420 102
DD 26 0 276
DD 27 346 364
DD 28 286 104
DD 29 160 104
DD 30 304 276
DD 31 304 50
DD 32 420 174
DD 33 304 364
DD 34 346 129
DD 35 0 184
DD 36 492 174
DD 37 222 18
DD 38 322 276
DD 39 346 150
DD 40 304 0
DD 41 255 104
DD 42 494 174
DD 43 322 364
DD 44 494 364
DD 45 494 102
DD 46 304 102
DD 47 222 62
DD 48 322 250
DD 49 492 250
DD 50 346 276
DD 51 222 0
DD 52 492 102
DD 53 346 184
DD 54 0 110
DD 55 346 102
END

EOF
